4 28 64 53 61 69 51 88 12 0 1 8 38 21 32 29 40 74 48 77 54 55 94 78 16 39 37 24 20 58 56 3 92 70 84 90 17 76 81 34 59 68 97 86 65 75 50 66 91 5 7 44 87 19 79 26 35 85 23 22 52 93 45 49 41 89 31 72 96 14 80 42 73 6 95 67 18 99 25 43 46 33 36 10 60 57 71 11 47 62 82 83 98 15 27 9 63 30 2 13